c description: Random 3-CNF over 19 variables and 81 clauses
c generator: CNFgen (0.9.2)
c copyright: (C) 2012-2022 Massimo Lauria <massimo.lauria@uniroma1.it>
c url: https://massimolauria.net/cnfgen
c command line: cnfgen --output CNF_4.28/19_bit_81_847.cnf randkcnf 3 19 81
c
p cnf 19 81
-2 -4 15 0
7 -11 -12 0
7 15 16 0
-3 11 19 0
-8 -11 -16 0
7 9 -16 0
-6 -11 -18 0
4 -10 16 0
-8 -12 18 0
2 -4 6 0
4 -8 10 0
10 11 19 0
2 -15 18 0
5 13 17 0
4 12 18 0
4 10 19 0
-4 5 -18 0
-3 -13 -14 0
-5 -6 17 0
3 15 -19 0
-9 11 18 0
-5 8 11 0
4 -9 -12 0
-1 -8 -17 0
-6 -11 -19 0
-2 -8 -15 0
-4 -13 -18 0
-2 -14 16 0
-1 11 -12 0
-2 -3 -6 0
-12 14 -17 0
-2 9 18 0
-3 16 18 0
-10 12 15 0
-2 14 16 0
1 -4 -10 0
9 11 15 0
11 -16 17 0
-7 10 16 0
2 -8 12 0
6 9 -12 0
5 10 -18 0
2 7 -10 0
-3 -6 -19 0
4 11 -15 0
-3 11 -13 0
10 12 13 0
-5 7 8 0
-3 13 -17 0
-3 -5 -12 0
5 -9 16 0
3 5 16 0
2 -10 14 0
15 -16 18 0
-6 16 18 0
3 -7 19 0
3 -8 -11 0
1 -10 12 0
2 -4 10 0
4 16 19 0
8 -13 19 0
5 -10 12 0
4 8 11 0
-5 10 14 0
12 16 19 0
-6 -8 -17 0
1 2 9 0
4 8 -17 0
8 -10 -16 0
14 15 16 0
9 -12 -15 0
3 -5 -16 0
-2 15 -18 0
-11 -16 19 0
-4 7 -16 0
5 -16 -17 0
2 -13 -15 0
2 5 -15 0
5 -7 10 0
-8 16 -19 0
-2 -17 18 0
